;; sequence(s): A159721
;; terms: 6 36 192 960 4608 21504 98304 442368 1966080 8650752 37748736 163577856 704643072 3019898880 12884901888 54760833024 231928233984 979252543488 4123168604160 17317308137472
;; small program: (1 + 2) * loop(x + x, x + x, 2 + x)
;; fast program: (1 + 2) * ((2 + x) * loop(x * x, 1, loop(x + x, x, 1)))
(set-logic UFNIA)
(declare-fun f0 (Int) Int)
(declare-fun g0 (Int) Int)
(declare-fun h0 (Int) Int)
(declare-fun u0 (Int Int) Int)
(declare-fun v0 (Int) Int)
(declare-fun small (Int) Int)
(declare-fun f1 (Int) Int)
(declare-fun g1 () Int)
(declare-fun f2 (Int) Int)
(declare-fun g2 (Int) Int)
(declare-fun h2 () Int)
(declare-fun u2 (Int Int) Int)
(declare-fun v2 (Int) Int)
(declare-fun h1 (Int) Int)
(declare-fun u1 (Int Int) Int)
(declare-fun v1 (Int) Int)
(declare-fun fast (Int) Int)
(assert (forall ((x Int)) (= (f0 x) (+ x x))))
(assert (forall ((x Int)) (= (g0 x) (+ x x))))
(assert (forall ((x Int)) (= (h0 x) (+ 2 x))))
(assert (forall ((x Int) (y Int)) (= (u0 x y) (ite (<= x 0) y (f0 (u0 (- x 1) y))))))
(assert (forall ((x Int)) (= (v0 x) (u0 (g0 x) (h0 x)))))
(assert (forall ((x Int)) (= (small x) (* (+ 1 2) (v0 x)))))
(assert (forall ((x Int)) (= (f1 x) (* x x))))
(assert (= g1 1))
(assert (forall ((x Int)) (= (f2 x) (+ x x))))
(assert (forall ((x Int)) (= (g2 x) x)))
(assert (= h2 1))
(assert (forall ((x Int) (y Int)) (= (u2 x y) (ite (<= x 0) y (f2 (u2 (- x 1) y))))))
(assert (forall ((x Int)) (= (v2 x) (u2 (g2 x) h2))))
(assert (forall ((x Int)) (= (h1 x) (v2 x))))
(assert (forall ((x Int) (y Int)) (= (u1 x y) (ite (<= x 0) y (f1 (u1 (- x 1) y))))))
(assert (forall ((x Int)) (= (v1 x) (u1 g1 (h1 x)))))
(assert (forall ((x Int)) (= (fast x) (* (+ 1 2) (* (+ 2 x) (v1 x))))))
(assert (exists ((c Int)) (and (>= c 0) (not (= (small c) (fast c))))))
(check-sat)
